/*********************************************
    * Lab01 - simple
    * Author: Coso
    * Creation Date: Mar, 2019
    *********************************************/
instance_name = "small_instance_15_simple";

d = 2;
r = 3;

SCj = [211 193];
Dk = [73 79 93];

Cjk = [[42 42 33]
 [75 53 65]];
